NAME /Users/henri/Research/solvers/instances/idol-instances/robust/collection/cbp_Subramanyam_et_al_2020/CapBud_N15_15/models/uncertain_technology_matrix/
ROWS
 N  OBJ
 L  capacity
 L  c_1885
 L  c_1886
 L  c_1887
 L  c_1888
 L  c_1889
 L  c_1890
 L  c_1891
 L  c_1892
 L  c_1893
 L  c_1894
 L  c_1895
 L  c_1896
 L  c_1897
 L  c_1898
 L  c_1899
COLUMNS
    MARKER    'MARKER'                 'INTORG'
    x_0        OBJ        -0.37834
    x_0        c_1885     1
    x_0        capacity   0.0756681
    x_1        OBJ        -8.65308
    x_1        c_1886     1
    x_1        capacity   1.73062
    x_2        OBJ        -7.05418
    x_2        c_1887     1
    x_2        capacity   1.41084
    x_3        OBJ        -3.21537
    x_3        c_1888     1
    x_3        capacity   0.643075
    x_4        OBJ        -0.240428
    x_4        c_1889     1
    x_4        capacity   0.0480856
    x_5        OBJ        -1.81615
    x_5        c_1890     1
    x_5        capacity   0.363231
    x_6        OBJ        -3.22703
    x_6        c_1891     1
    x_6        capacity   0.645406
    x_7        OBJ        -2.96001
    x_7        c_1892     1
    x_7        capacity   0.592002
    x_8        OBJ        -8.86343
    x_8        c_1893     1
    x_8        capacity   1.77269
    x_9        OBJ        -7.95013
    x_9        c_1894     1
    x_9        capacity   1.59003
    x_10       OBJ        -1.92871
    x_10       c_1895     1
    x_10       capacity   0.385742
    x_11       OBJ        -9.05356
    x_11       c_1896     1
    x_11       capacity   1.81071
    x_12       OBJ        -5.48143
    x_12       c_1897     1
    x_12       capacity   1.09629
    x_13       OBJ        -3.03267
    x_13       c_1898     1
    x_13       capacity   0.606535
    x_14       OBJ        -1.30147
    x_14       c_1899     1
    x_14       capacity   0.260294
    y_0        OBJ        -0.302672
    y_0        c_1885     1
    y_0        capacity   0.0756681
    y_1        OBJ        -6.92247
    y_1        c_1886     1
    y_1        capacity   1.73062
    y_2        OBJ        -5.64334
    y_2        c_1887     1
    y_2        capacity   1.41084
    y_3        OBJ        -2.5723
    y_3        c_1888     1
    y_3        capacity   0.643075
    y_4        OBJ        -0.192342
    y_4        c_1889     1
    y_4        capacity   0.0480856
    y_5        OBJ        -1.45292
    y_5        c_1890     1
    y_5        capacity   0.363231
    y_6        OBJ        -2.58162
    y_6        c_1891     1
    y_6        capacity   0.645406
    y_7        OBJ        -2.36801
    y_7        c_1892     1
    y_7        capacity   0.592002
    y_8        OBJ        -7.09074
    y_8        c_1893     1
    y_8        capacity   1.77269
    y_9        OBJ        -6.3601
    y_9        c_1894     1
    y_9        capacity   1.59003
    y_10       OBJ        -1.54297
    y_10       c_1895     1
    y_10       capacity   0.385742
    y_11       OBJ        -7.24285
    y_11       c_1896     1
    y_11       capacity   1.81071
    y_12       OBJ        -4.38514
    y_12       c_1897     1
    y_12       capacity   1.09629
    y_13       OBJ        -2.42614
    y_13       c_1898     1
    y_13       capacity   0.606535
    y_14       OBJ        -1.04118
    y_14       c_1899     1
    y_14       capacity   0.260294
    MARKER    'MARKER'                 'INTEND'
RHS
    RHS       capacity   32.578
    RHS       c_1885     1
    RHS       c_1886     1
    RHS       c_1887     1
    RHS       c_1888     1
    RHS       c_1889     1
    RHS       c_1890     1
    RHS       c_1891     1
    RHS       c_1892     1
    RHS       c_1893     1
    RHS       c_1894     1
    RHS       c_1895     1
    RHS       c_1896     1
    RHS       c_1897     1
    RHS       c_1898     1
    RHS       c_1899     1
BOUNDS
 LI BND       x_0        0
 UI BND       x_0        1
 LI BND       x_1        0
 UI BND       x_1        1
 LI BND       x_2        0
 UI BND       x_2        1
 LI BND       x_3        0
 UI BND       x_3        1
 LI BND       x_4        0
 UI BND       x_4        1
 LI BND       x_5        0
 UI BND       x_5        1
 LI BND       x_6        0
 UI BND       x_6        1
 LI BND       x_7        0
 UI BND       x_7        1
 LI BND       x_8        0
 UI BND       x_8        1
 LI BND       x_9        0
 UI BND       x_9        1
 LI BND       x_10       0
 UI BND       x_10       1
 LI BND       x_11       0
 UI BND       x_11       1
 LI BND       x_12       0
 UI BND       x_12       1
 LI BND       x_13       0
 UI BND       x_13       1
 LI BND       x_14       0
 UI BND       x_14       1
 LI BND       y_0        0
 UI BND       y_0        1
 LI BND       y_1        0
 UI BND       y_1        1
 LI BND       y_2        0
 UI BND       y_2        1
 LI BND       y_3        0
 UI BND       y_3        1
 LI BND       y_4        0
 UI BND       y_4        1
 LI BND       y_5        0
 UI BND       y_5        1
 LI BND       y_6        0
 UI BND       y_6        1
 LI BND       y_7        0
 UI BND       y_7        1
 LI BND       y_8        0
 UI BND       y_8        1
 LI BND       y_9        0
 UI BND       y_9        1
 LI BND       y_10       0
 UI BND       y_10       1
 LI BND       y_11       0
 UI BND       y_11       1
 LI BND       y_12       0
 UI BND       y_12       1
 LI BND       y_13       0
 UI BND       y_13       1
 LI BND       y_14       0
 UI BND       y_14       1
ENDATA
